# Solution for model p01_budget_0p150
# Objective value = 1.5000000000006247e-01
Risk 1.5000000000006247e-01
0 0
1 0
3 0.001
4 30.001
5 3.0002000000000002e+01
6 40.002
7 3.8697846998777393e+01
9 8.0618314465424689e+01
c(0,1)_Rl 0.001
c(0,1)_Ru 0
c(0,3)_Rl 0
c(0,3)_Ru 0
c(3,4)_Rl 0
c(3,4)_Ru 0
c(4,5)_Rl 0
c(4,5)_Ru 0
c(3,5)_Rl 0
c(3,5)_Ru 0
c(1,2)_l 0
c(1,2)_u 3.8696846998777396e+01
c(2,7)_Fl 0
c(2,7)_Fu 9.0723567739710242e-02
c(1,7)_Rl 0
c(1,7)_Ru 0
c(5,6)_Rl 0
c(5,6)_Ru 0
c(3,6)_Rl 0
c(3,6)_Ru 0
c(7,8)_l 0
c(7,8)_u 4.1919467466647291e+01
c(1,8)_Fl 0
c(1,8)_Fu 2.9638216130176087e-02
c(0,9)_Rl 0
c(0,9)_Ru 4.4617714465424690e+01
c(8,9)_Fl 0
c(8,9)_Fu 2.9638216130176143e-02
c(6,9)_Rl 0
c(6,9)_Ru 0
Cost 4.4618714465424688e+01
